NAME : portgen-17-10
COMMENT : portgen N=17, seed=10
TYPE : TSP
DIMENSION : 17
EDGE_WEIGHT_TYPE : EUC_2D
NODE_COORD_SECTION
1 797517 173948
2 880140 682535
3 390634 664426
4 688253 780117
5 330270 823990
6 821952 334380
7 390702 797652
8 533664 23775
9 614815 824750
10 388273 17724
11 995203 582941
12 869100 983626
13 844494 801657
14 371160 512074
15 227626 747832
16 704962 285102
17 57551 30845
